(set-info :source |printed by MathSAT|)
(declare-fun |!{$(in_main#0)<i>}| () Int)
(declare-fun |!{$(in_main#0)<i>}.next| () Int)
(declare-fun |!{$(in_main#0)<j>}| () Int)
(declare-fun |!{$(in_main#0)<j>}.next| () Int)
(declare-fun |!{$(in_main#0)<size>}| () Int)
(declare-fun |!{$(in_main#0)<size>}.next| () Int)
(declare-fun |!{$(in_main#0)<b.1>}| () (Array Int Int))
(declare-fun |!{$(in_main#0)<b.1>}.next| () (Array Int Int))
(declare-fun |!{$(in_main#0)<a.2>}| () (Array Int Int))
(declare-fun |!{$(in_main#0)<a.2>}.next| () (Array Int Int))
(declare-fun |!{$(in_main#0)<$(in___VERIFIER_nondet_int#0)<h#<__VERIFIER_nondet_int.return>>>}| () Int)
(declare-fun |!{$(in_main#0)<$(in___VERIFIER_nondet_int#1)<h#<__VERIFIER_nondet_int.return>>>}| () Int)
(declare-fun !pc () Int)
(declare-fun !pc.next () Int)
(declare-fun |%{$(in_main#0)<b.1>}#1| () (Array Int Int))
(declare-fun |%{$(in_main#0)<a.2>}#1| () (Array Int Int))
(define-fun .def_29 () Int (! !pc :next !pc.next))
(define-fun .def_32 () Bool (! (= .def_29 2) :init true))
(define-fun .def_153 () Bool (= .def_29 24))
(define-fun .def_132 () Bool (= !pc.next 43))
(define-fun .def_156 () Bool (and .def_132 .def_153))
(define-fun .def_124 () Bool (= |!{$(in_main#0)<i>}.next| 1))
(define-fun .def_10 () Int (! |!{$(in_main#0)<j>}| :next |!{$(in_main#0)<j>}.next|))
(define-fun .def_74 () Bool (= .def_10 |!{$(in_main#0)<j>}.next|))
(define-fun .def_148 () Bool (and .def_74 .def_124))
(define-fun .def_12 () Int (! |!{$(in_main#0)<size>}| :next |!{$(in_main#0)<size>}.next|))
(define-fun .def_76 () Bool (= .def_12 |!{$(in_main#0)<size>}.next|))
(define-fun .def_149 () Bool (and .def_76 .def_148))
(define-fun .def_14 () (Array Int Int) (! |!{$(in_main#0)<b.1>}| :next |!{$(in_main#0)<b.1>}.next|))
(define-fun .def_78 () Bool (= .def_14 |!{$(in_main#0)<b.1>}.next|))
(define-fun .def_150 () Bool (and .def_78 .def_149))
(define-fun .def_16 () (Array Int Int) (! |!{$(in_main#0)<a.2>}| :next |!{$(in_main#0)<a.2>}.next|))
(define-fun .def_80 () Bool (= .def_16 |!{$(in_main#0)<a.2>}.next|))
(define-fun .def_151 () Bool (and .def_80 .def_150))
(define-fun .def_8 () Int (! |!{$(in_main#0)<i>}| :next |!{$(in_main#0)<i>}.next|))
(define-fun .def_57 () Bool (<= .def_12 .def_8))
(define-fun .def_152 () Bool (and .def_57 .def_151))
(define-fun .def_157 () Bool (and .def_152 .def_156))
(define-fun .def_54 () Bool (= !pc.next 24))
(define-fun .def_154 () Bool (and .def_54 .def_153))
(define-fun .def_139 () (Array Int Int) (store .def_14 .def_8 |!{$(in_main#0)<$(in___VERIFIER_nondet_int#1)<h#<__VERIFIER_nondet_int.return>>>}|))
(define-fun .def_144 () Bool (= |!{$(in_main#0)<b.1>}.next| .def_139))
(define-fun .def_85 () Int (* (- 1) |!{$(in_main#0)<i>}.next|))
(define-fun .def_86 () Int (+ .def_8 .def_85))
(define-fun .def_141 () Bool (= .def_86 (- 1)))
(define-fun .def_142 () Bool (and .def_74 .def_141))
(define-fun .def_143 () Bool (and .def_76 .def_142))
(define-fun .def_145 () Bool (and .def_143 .def_144))
(define-fun .def_146 () Bool (and .def_80 .def_145))
(define-fun .def_58 () Bool (not .def_57))
(define-fun .def_147 () Bool (and .def_58 .def_146))
(define-fun .def_155 () Bool (and .def_147 .def_154))
(define-fun .def_158 () Bool (or .def_155 .def_157))
(define-fun .def_131 () Bool (= .def_29 43))
(define-fun .def_108 () Bool (= !pc.next 57))
(define-fun .def_135 () Bool (and .def_108 .def_131))
(define-fun .def_45 () Bool (= |!{$(in_main#0)<j>}.next| 0))
(define-fun .def_125 () Bool (and .def_45 .def_124))
(define-fun .def_126 () Bool (and .def_76 .def_125))
(define-fun .def_127 () Bool (and .def_78 .def_126))
(define-fun .def_128 () Bool (and .def_80 .def_127))
(define-fun .def_129 () Bool (and .def_57 .def_128))
(define-fun .def_136 () Bool (and .def_129 .def_135))
(define-fun .def_133 () Bool (and .def_131 .def_132))
(define-fun .def_119 () Int (select .def_14 .def_8))
(define-fun .def_120 () (Array Int Int) (store .def_16 .def_10 .def_119))
(define-fun .def_121 () Bool (= |!{$(in_main#0)<a.2>}.next| .def_120))
(define-fun .def_88 () Int (* (- 1) |!{$(in_main#0)<j>}.next|))
(define-fun .def_89 () Int (+ .def_10 .def_88))
(define-fun .def_90 () Bool (= .def_89 (- 1)))
(define-fun .def_87 () Bool (= .def_86 (- 2)))
(define-fun .def_91 () Bool (and .def_87 .def_90))
(define-fun .def_92 () Bool (and .def_76 .def_91))
(define-fun .def_93 () Bool (and .def_78 .def_92))
(define-fun .def_122 () Bool (and .def_93 .def_121))
(define-fun .def_123 () Bool (and .def_58 .def_122))
(define-fun .def_134 () Bool (and .def_123 .def_133))
(define-fun .def_137 () Bool (or .def_134 .def_136))
(define-fun .def_112 () Bool (= !pc.next 0))
(define-fun .def_103 () Bool (= .def_29 57))
(define-fun .def_113 () Bool (and .def_103 .def_112))
(define-fun .def_72 () Bool (= .def_8 |!{$(in_main#0)<i>}.next|))
(define-fun .def_97 () Bool (and .def_57 .def_72))
(define-fun .def_98 () Bool (and .def_74 .def_97))
(define-fun .def_99 () Bool (and .def_76 .def_98))
(define-fun .def_100 () Bool (and .def_78 .def_99))
(define-fun .def_101 () Bool (and .def_80 .def_100))
(define-fun .def_114 () Bool (and .def_101 .def_113))
(define-fun .def_109 () Bool (and .def_103 .def_108))
(define-fun .def_94 () Bool (and .def_80 .def_93))
(define-fun .def_60 () Int (* 2 .def_10))
(define-fun .def_62 () Int (+ .def_60 1))
(define-fun .def_63 () Int (select .def_14 .def_62))
(define-fun .def_59 () Int (select .def_16 .def_10))
(define-fun .def_64 () Bool (= .def_59 .def_63))
(define-fun .def_65 () Int (ite .def_64 1 0))
(define-fun .def_66 () Bool (= .def_65 0))
(define-fun .def_67 () Bool (not .def_66))
(define-fun .def_95 () Bool (and .def_67 .def_94))
(define-fun .def_96 () Bool (and .def_58 .def_95))
(define-fun .def_110 () Bool (and .def_96 .def_109))
(define-fun .def_105 () Bool (= !pc.next 77))
(define-fun .def_106 () Bool (and .def_103 .def_105))
(define-fun .def_73 () Bool (and .def_66 .def_72))
(define-fun .def_75 () Bool (and .def_73 .def_74))
(define-fun .def_77 () Bool (and .def_75 .def_76))
(define-fun .def_79 () Bool (and .def_77 .def_78))
(define-fun .def_81 () Bool (and .def_79 .def_80))
(define-fun .def_82 () Bool (and .def_58 .def_81))
(define-fun .def_107 () Bool (and .def_82 .def_106))
(define-fun .def_111 () Bool (or .def_107 .def_110))
(define-fun .def_115 () Bool (or .def_111 .def_114))
(define-fun .def_55 () Bool (and .def_32 .def_54))
(define-fun .def_51 () Bool (= |!{$(in_main#0)<a.2>}.next| |%{$(in_main#0)<a.2>}#1|))
(define-fun .def_49 () Bool (= |!{$(in_main#0)<b.1>}.next| |%{$(in_main#0)<b.1>}#1|))
(define-fun .def_47 () Bool (= |!{$(in_main#0)<size>}.next| |!{$(in_main#0)<$(in___VERIFIER_nondet_int#0)<h#<__VERIFIER_nondet_int.return>>>}|))
(define-fun .def_44 () Bool (= |!{$(in_main#0)<i>}.next| 0))
(define-fun .def_46 () Bool (and .def_44 .def_45))
(define-fun .def_48 () Bool (and .def_46 .def_47))
(define-fun .def_50 () Bool (and .def_48 .def_49))
(define-fun .def_52 () Bool (and .def_50 .def_51))
(define-fun .def_56 () Bool (and .def_52 .def_55))
(define-fun .def_116 () Bool (or .def_56 .def_115))
(define-fun .def_138 () Bool (or .def_116 .def_137))
(define-fun .def_159 () Bool (! (or .def_138 .def_158) :trans true))
(define-fun .def_117 () Bool (= .def_29 77))
(define-fun .def_160 () Bool (! (not .def_117) :invar-property 0 :invar-property-name ||))
(assert true)
